(set-info :smt-lib-version 2.7)
(set-logic ALL)
(set-info :source |
Generated on: 2026-06-22
Generator: pog2smtlib-2.7 github.com/CLEARSY/pog2smtlib-2.7 (-l HO_ALL -rpX)
Application: Discharging a proof obligation generated by aTelierB from an anonymized B machine
Target solver: CVC5 (--mbqi --enum-inst)
Time limit: 1200.0
|)
(set-info :license "www.gnu.org/licenses/gpl-3.0.en.html")
(set-info :category "industrial")
(set-info :status unknown)

(declare-datatype |s0| ((s1)(s2)))
(declare-datatype C (par (T1 T2) ((maplet (fst T1) (snd T2)))))
(define-sort |Z| () Int)
(declare-sort P 1)
(define-sort |(Z x s0)| () (C |Z| |s0|))
(define-sort |POW s0| () (P |s0|))
(define-sort |POW Z| () (P |Z|))
(define-sort |BOOL| () Bool)
(define-sort |POW (Z x s0)| () (P |(Z x s0)|))
(declare-fun |set.in s0| (|s0| |POW s0|) Bool)
(declare-fun |set.in Z| (|Z| |POW Z|) Bool)
(define-sort |(BOOL x s0)| () (C |BOOL| |s0|))
(define-sort |POW BOOL| () (P |BOOL|))
(define-sort |(POW (Z x s0) x Z)| () (C |POW (Z x s0)| |Z|))
(declare-fun |set.in (Z x s0)| (|(Z x s0)| |POW (Z x s0)|) Bool)
(define-sort |POW POW (Z x s0)| () (P |POW (Z x s0)|))
(define-sort |(Z x POW (Z x s0))| () (C |Z| |POW (Z x s0)|))
(define-sort |(s0 x BOOL)| () (C |s0| |BOOL|))
(define-sort |POW (BOOL x s0)| () (P |(BOOL x s0)|))
(declare-fun |set.in BOOL| (|BOOL| |POW BOOL|) Bool)
(define-sort |POW (POW (Z x s0) x Z)| () (P |(POW (Z x s0) x Z)|))
(declare-fun |set.in POW (Z x s0)| (|POW (Z x s0)| |POW POW (Z x s0)|) Bool)
(define-sort |POW (Z x POW (Z x s0))| () (P |(Z x POW (Z x s0))|))
(define-sort |POW (s0 x BOOL)| () (P |(s0 x BOOL)|))
(declare-fun |set.in (BOOL x s0)| (|(BOOL x s0)| |POW (BOOL x s0)|) Bool)
(define-sort |POW POW (BOOL x s0)| () (P |POW (BOOL x s0)|))
(declare-fun |set.in (POW (Z x s0) x Z)| (|(POW (Z x s0) x Z)| |POW (POW (Z x s0) x Z)|) Bool)
(define-sort |POW POW (POW (Z x s0) x Z)| () (P |POW (POW (Z x s0) x Z)|))
(declare-fun |set.in (Z x POW (Z x s0))| (|(Z x POW (Z x s0))| |POW (Z x POW (Z x s0))|) Bool)
(define-sort |POW POW (Z x POW (Z x s0))| () (P |POW (Z x POW (Z x s0))|))
(declare-fun |set.in (s0 x BOOL)| (|(s0 x BOOL)| |POW (s0 x BOOL)|) Bool)
(define-sort |POW POW (s0 x BOOL)| () (P |POW (s0 x BOOL)|))
(declare-fun |set.subseteq (BOOL x s0)| (|POW (BOOL x s0)| |POW (BOOL x s0)|) Bool)
(assert (!
    (forall ((s |POW (BOOL x s0)|) (t |POW (BOOL x s0)|))
      (=
        (|set.subseteq (BOOL x s0)| s t)
        (forall ((e |(BOOL x s0)|)) (=> (|set.in (BOOL x s0)| e s) (|set.in (BOOL x s0)| e t)))
      )
    )
    :named |ax.set.subseteq (BOOL x s0)|))
(declare-fun |set.in POW (BOOL x s0)| (|POW (BOOL x s0)| |POW POW (BOOL x s0)|) Bool)
(declare-fun |set.subseteq (POW (Z x s0) x Z)| (|POW (POW (Z x s0) x Z)| |POW (POW (Z x s0) x Z)|) Bool)
(assert (!
    (forall ((s |POW (POW (Z x s0) x Z)|) (t |POW (POW (Z x s0) x Z)|))
      (=
        (|set.subseteq (POW (Z x s0) x Z)| s t)
        (forall ((e |(POW (Z x s0) x Z)|)) (=> (|set.in (POW (Z x s0) x Z)| e s) (|set.in (POW (Z x s0) x Z)| e t)))
      )
    )
    :named |ax.set.subseteq (POW (Z x s0) x Z)|))
(declare-fun |set.in POW (POW (Z x s0) x Z)| (|POW (POW (Z x s0) x Z)| |POW POW (POW (Z x s0) x Z)|) Bool)
(declare-fun |set.subseteq (Z x POW (Z x s0))| (|POW (Z x POW (Z x s0))| |POW (Z x POW (Z x s0))|) Bool)
(assert (!
    (forall ((s |POW (Z x POW (Z x s0))|) (t |POW (Z x POW (Z x s0))|))
      (=
        (|set.subseteq (Z x POW (Z x s0))| s t)
        (forall ((e |(Z x POW (Z x s0))|)) (=> (|set.in (Z x POW (Z x s0))| e s) (|set.in (Z x POW (Z x s0))| e t)))
      )
    )
    :named |ax.set.subseteq (Z x POW (Z x s0))|))
(declare-fun |set.in POW (Z x POW (Z x s0))| (|POW (Z x POW (Z x s0))| |POW POW (Z x POW (Z x s0))|) Bool)
(declare-fun |set.subseteq (s0 x BOOL)| (|POW (s0 x BOOL)| |POW (s0 x BOOL)|) Bool)
(assert (!
    (forall ((s |POW (s0 x BOOL)|) (t |POW (s0 x BOOL)|))
      (=
        (|set.subseteq (s0 x BOOL)| s t)
        (forall ((e |(s0 x BOOL)|)) (=> (|set.in (s0 x BOOL)| e s) (|set.in (s0 x BOOL)| e t)))
      )
    )
    :named |ax.set.subseteq (s0 x BOOL)|))
(declare-fun |set.in POW (s0 x BOOL)| (|POW (s0 x BOOL)| |POW POW (s0 x BOOL)|) Bool)
(declare-fun |sub-sets (BOOL x s0)| (|POW (BOOL x s0)|) |POW POW (BOOL x s0)|)
(assert (!
  (forall ((s |POW (BOOL x s0)|) (t |POW (BOOL x s0)|))
    (=
      (|set.in POW (BOOL x s0)| s (|sub-sets (BOOL x s0)| t))
      (|set.subseteq (BOOL x s0)| s t)))
  :named |ax.sub-sets (BOOL x s0)|))
(declare-fun |set.product BOOL s0| (|POW BOOL| |POW s0|) |POW (BOOL x s0)|)
(assert (!
  (forall ((s1 |POW BOOL|) (s2 |POW s0|))
    (forall ((p |(BOOL x s0)|))
      (= (|set.in (BOOL x s0)| p (|set.product BOOL s0| s1 s2))
        (and (|set.in BOOL| (fst p) s1) (|set.in s0| (snd p) s2)))))
  :named |ax.set.in.product.1 (BOOL x s0)|))
(assert (!
  (forall ((s1 |POW BOOL|) (s2 |POW s0|))
    (forall ((x1 |BOOL|) (x2 |s0|))
      (= (|set.in (BOOL x s0)| (maplet x1 x2) (|set.product BOOL s0| s1 s2))
        (and (|set.in BOOL| x1 s1) (|set.in s0| x2 s2)))))
  :named |ax.set.in.product.2 (BOOL x s0)|))
(declare-fun |sub-sets (POW (Z x s0) x Z)| (|POW (POW (Z x s0) x Z)|) |POW POW (POW (Z x s0) x Z)|)
(assert (!
  (forall ((s |POW (POW (Z x s0) x Z)|) (t |POW (POW (Z x s0) x Z)|))
    (=
      (|set.in POW (POW (Z x s0) x Z)| s (|sub-sets (POW (Z x s0) x Z)| t))
      (|set.subseteq (POW (Z x s0) x Z)| s t)))
  :named |ax.sub-sets (POW (Z x s0) x Z)|))
(declare-fun |set.product POW (Z x s0) Z| (|POW POW (Z x s0)| |POW Z|) |POW (POW (Z x s0) x Z)|)
(assert (!
  (forall ((s1 |POW POW (Z x s0)|) (s2 |POW Z|))
    (forall ((p |(POW (Z x s0) x Z)|))
      (= (|set.in (POW (Z x s0) x Z)| p (|set.product POW (Z x s0) Z| s1 s2))
        (and (|set.in POW (Z x s0)| (fst p) s1) (|set.in Z| (snd p) s2)))))
  :named |ax.set.in.product.1 (POW (Z x s0) x Z)|))
(assert (!
  (forall ((s1 |POW POW (Z x s0)|) (s2 |POW Z|))
    (forall ((x1 |POW (Z x s0)|) (x2 |Z|))
      (= (|set.in (POW (Z x s0) x Z)| (maplet x1 x2) (|set.product POW (Z x s0) Z| s1 s2))
        (and (|set.in POW (Z x s0)| x1 s1) (|set.in Z| x2 s2)))))
  :named |ax.set.in.product.2 (POW (Z x s0) x Z)|))
(assert (!
  (forall ((s |POW (Z x s0)|) (t |POW (Z x s0)|))
    (=
      (= s t)
      (forall ((e |(Z x s0)|)) (= (|set.in (Z x s0)| e s) (|set.in (Z x s0)| e t)))))
  :named |ax.set.eq (Z x s0)|))
(declare-fun |sub-sets (Z x POW (Z x s0))| (|POW (Z x POW (Z x s0))|) |POW POW (Z x POW (Z x s0))|)
(assert (!
  (forall ((s |POW (Z x POW (Z x s0))|) (t |POW (Z x POW (Z x s0))|))
    (=
      (|set.in POW (Z x POW (Z x s0))| s (|sub-sets (Z x POW (Z x s0))| t))
      (|set.subseteq (Z x POW (Z x s0))| s t)))
  :named |ax.sub-sets (Z x POW (Z x s0))|))
(declare-fun |set.product Z POW (Z x s0)| (|POW Z| |POW POW (Z x s0)|) |POW (Z x POW (Z x s0))|)
(assert (!
  (forall ((s1 |POW Z|) (s2 |POW POW (Z x s0)|))
    (forall ((p |(Z x POW (Z x s0))|))
      (= (|set.in (Z x POW (Z x s0))| p (|set.product Z POW (Z x s0)| s1 s2))
        (and (|set.in Z| (fst p) s1) (|set.in POW (Z x s0)| (snd p) s2)))))
  :named |ax.set.in.product.1 (Z x POW (Z x s0))|))
(assert (!
  (forall ((s1 |POW Z|) (s2 |POW POW (Z x s0)|))
    (forall ((x1 |Z|) (x2 |POW (Z x s0)|))
      (= (|set.in (Z x POW (Z x s0))| (maplet x1 x2) (|set.product Z POW (Z x s0)| s1 s2))
        (and (|set.in Z| x1 s1) (|set.in POW (Z x s0)| x2 s2)))))
  :named |ax.set.in.product.2 (Z x POW (Z x s0))|))
(declare-fun |set.subseteq (Z x s0)| (|POW (Z x s0)| |POW (Z x s0)|) Bool)
(assert (!
    (forall ((s |POW (Z x s0)|) (t |POW (Z x s0)|))
      (=
        (|set.subseteq (Z x s0)| s t)
        (forall ((e |(Z x s0)|)) (=> (|set.in (Z x s0)| e s) (|set.in (Z x s0)| e t)))
      )
    )
    :named |ax.set.subseteq (Z x s0)|))
(declare-fun |sub-sets (s0 x BOOL)| (|POW (s0 x BOOL)|) |POW POW (s0 x BOOL)|)
(assert (!
  (forall ((s |POW (s0 x BOOL)|) (t |POW (s0 x BOOL)|))
    (=
      (|set.in POW (s0 x BOOL)| s (|sub-sets (s0 x BOOL)| t))
      (|set.subseteq (s0 x BOOL)| s t)))
  :named |ax.sub-sets (s0 x BOOL)|))
(declare-fun |set.product s0 BOOL| (|POW s0| |POW BOOL|) |POW (s0 x BOOL)|)
(assert (!
  (forall ((s1 |POW s0|) (s2 |POW BOOL|))
    (forall ((p |(s0 x BOOL)|))
      (= (|set.in (s0 x BOOL)| p (|set.product s0 BOOL| s1 s2))
        (and (|set.in s0| (fst p) s1) (|set.in BOOL| (snd p) s2)))))
  :named |ax.set.in.product.1 (s0 x BOOL)|))
(assert (!
  (forall ((s1 |POW s0|) (s2 |POW BOOL|))
    (forall ((x1 |s0|) (x2 |BOOL|))
      (= (|set.in (s0 x BOOL)| (maplet x1 x2) (|set.product s0 BOOL| s1 s2))
        (and (|set.in s0| x1 s1) (|set.in BOOL| x2 s2)))))
  :named |ax.set.in.product.2 (s0 x BOOL)|))
(declare-fun |relations BOOL s0| (|POW BOOL| |POW s0|) |POW POW (BOOL x s0)|)
(assert (!
  (forall ((X |POW BOOL|) (Y |POW s0|))
    (= (|relations BOOL s0| X Y)
       (|sub-sets (BOOL x s0)| (|set.product BOOL s0| X Y))))
    :named |def.relations (BOOL x s0)|))
(declare-fun |functions BOOL s0| (|POW BOOL| |POW s0|) |POW POW (BOOL x s0)|)
(assert (!
  (forall ((X |POW BOOL|) (Y |POW s0|))
    (forall ((f |POW (BOOL x s0)|))
      (= (|set.in POW (BOOL x s0)| f (|functions BOOL s0| X Y))
         (forall ((p |(BOOL x s0)|) (q |(BOOL x s0)|))
           (=> (and (|set.in (BOOL x s0)| p f) (|set.in (BOOL x s0)| q f) (= (fst p) (fst q)))
               (= (snd p) (snd q)))))))
:named |ax:set.in.functions (BOOL x s0)|))
(declare-fun |rel.domain BOOL s0| (|POW (BOOL x s0)|) |POW BOOL|)
(assert (!
  (forall ((r |POW (BOOL x s0)|) (e |BOOL|))
    (= (|set.in BOOL| e (|rel.domain BOOL s0| r))
       (exists ((y |s0|)) (|set.in (BOOL x s0)| (maplet e y) r))))
  :named |ax:set.in.domain (BOOL x s0)|))
(declare-fun |relations POW (Z x s0) Z| (|POW POW (Z x s0)| |POW Z|) |POW POW (POW (Z x s0) x Z)|)
(assert (!
  (forall ((X |POW POW (Z x s0)|) (Y |POW Z|))
    (= (|relations POW (Z x s0) Z| X Y)
       (|sub-sets (POW (Z x s0) x Z)| (|set.product POW (Z x s0) Z| X Y))))
    :named |def.relations (POW (Z x s0) x Z)|))
(declare-fun |functions POW (Z x s0) Z| (|POW POW (Z x s0)| |POW Z|) |POW POW (POW (Z x s0) x Z)|)
(assert (!
  (forall ((X |POW POW (Z x s0)|) (Y |POW Z|))
    (forall ((f |POW (POW (Z x s0) x Z)|))
      (= (|set.in POW (POW (Z x s0) x Z)| f (|functions POW (Z x s0) Z| X Y))
         (forall ((p |(POW (Z x s0) x Z)|) (q |(POW (Z x s0) x Z)|))
           (=> (and (|set.in (POW (Z x s0) x Z)| p f) (|set.in (POW (Z x s0) x Z)| q f) (= (fst p) (fst q)))
               (= (snd p) (snd q)))))))
:named |ax:set.in.functions (POW (Z x s0) x Z)|))
(declare-fun |rel.domain POW (Z x s0) Z| (|POW (POW (Z x s0) x Z)|) |POW POW (Z x s0)|)
(assert (!
  (forall ((r |POW (POW (Z x s0) x Z)|) (e |POW (Z x s0)|))
    (= (|set.in POW (Z x s0)| e (|rel.domain POW (Z x s0) Z| r))
       (exists ((y |Z|)) (|set.in (POW (Z x s0) x Z)| (maplet e y) r))))
  :named |ax:set.in.domain (POW (Z x s0) x Z)|))
(declare-fun |relations Z POW (Z x s0)| (|POW Z| |POW POW (Z x s0)|) |POW POW (Z x POW (Z x s0))|)
(assert (!
  (forall ((X |POW Z|) (Y |POW POW (Z x s0)|))
    (= (|relations Z POW (Z x s0)| X Y)
       (|sub-sets (Z x POW (Z x s0))| (|set.product Z POW (Z x s0)| X Y))))
    :named |def.relations (Z x POW (Z x s0))|))
(declare-fun |functions Z POW (Z x s0)| (|POW Z| |POW POW (Z x s0)|) |POW POW (Z x POW (Z x s0))|)
(assert (!
  (forall ((X |POW Z|) (Y |POW POW (Z x s0)|))
    (forall ((f |POW (Z x POW (Z x s0))|))
      (= (|set.in POW (Z x POW (Z x s0))| f (|functions Z POW (Z x s0)| X Y))
         (forall ((p |(Z x POW (Z x s0))|) (q |(Z x POW (Z x s0))|))
           (=> (and (|set.in (Z x POW (Z x s0))| p f) (|set.in (Z x POW (Z x s0))| q f) (= (fst p) (fst q)))
               (= (snd p) (snd q)))))))
:named |ax:set.in.functions (Z x POW (Z x s0))|))
(declare-fun |rel.domain Z POW (Z x s0)| (|POW (Z x POW (Z x s0))|) |POW Z|)
(assert (!
  (forall ((r |POW (Z x POW (Z x s0))|) (e |Z|))
    (= (|set.in Z| e (|rel.domain Z POW (Z x s0)| r))
       (exists ((y |POW (Z x s0)|)) (|set.in (Z x POW (Z x s0))| (maplet e y) r))))
  :named |ax:set.in.domain (Z x POW (Z x s0))|))
(declare-fun |sub-sets (Z x s0)| (|POW (Z x s0)|) |POW POW (Z x s0)|)
(assert (!
  (forall ((s |POW (Z x s0)|) (t |POW (Z x s0)|))
    (=
      (|set.in POW (Z x s0)| s (|sub-sets (Z x s0)| t))
      (|set.subseteq (Z x s0)| s t)))
  :named |ax.sub-sets (Z x s0)|))
(declare-fun |set.product Z s0| (|POW Z| |POW s0|) |POW (Z x s0)|)
(assert (!
  (forall ((s1 |POW Z|) (s2 |POW s0|))
    (forall ((p |(Z x s0)|))
      (= (|set.in (Z x s0)| p (|set.product Z s0| s1 s2))
        (and (|set.in Z| (fst p) s1) (|set.in s0| (snd p) s2)))))
  :named |ax.set.in.product.1 (Z x s0)|))
(assert (!
  (forall ((s1 |POW Z|) (s2 |POW s0|))
    (forall ((x1 |Z|) (x2 |s0|))
      (= (|set.in (Z x s0)| (maplet x1 x2) (|set.product Z s0| s1 s2))
        (and (|set.in Z| x1 s1) (|set.in s0| x2 s2)))))
  :named |ax.set.in.product.2 (Z x s0)|))
(declare-fun |relations s0 BOOL| (|POW s0| |POW BOOL|) |POW POW (s0 x BOOL)|)
(assert (!
  (forall ((X |POW s0|) (Y |POW BOOL|))
    (= (|relations s0 BOOL| X Y)
       (|sub-sets (s0 x BOOL)| (|set.product s0 BOOL| X Y))))
    :named |def.relations (s0 x BOOL)|))
(declare-fun |functions s0 BOOL| (|POW s0| |POW BOOL|) |POW POW (s0 x BOOL)|)
(assert (!
  (forall ((X |POW s0|) (Y |POW BOOL|))
    (forall ((f |POW (s0 x BOOL)|))
      (= (|set.in POW (s0 x BOOL)| f (|functions s0 BOOL| X Y))
         (forall ((p |(s0 x BOOL)|) (q |(s0 x BOOL)|))
           (=> (and (|set.in (s0 x BOOL)| p f) (|set.in (s0 x BOOL)| q f) (= (fst p) (fst q)))
               (= (snd p) (snd q)))))))
:named |ax:set.in.functions (s0 x BOOL)|))
(declare-fun |rel.domain s0 BOOL| (|POW (s0 x BOOL)|) |POW s0|)
(assert (!
  (forall ((r |POW (s0 x BOOL)|) (e |s0|))
    (= (|set.in s0| e (|rel.domain s0 BOOL| r))
       (exists ((y |BOOL|)) (|set.in (s0 x BOOL)| (maplet e y) r))))
  :named |ax:set.in.domain (s0 x BOOL)|))
(declare-fun |functions.partial BOOL s0| (|POW BOOL| |POW s0|) |POW POW (BOOL x s0)|)
(assert (!
  (forall ((e1 |POW BOOL|) (e2 |POW s0|))
    (forall ((f |POW (BOOL x s0)|))
      (= (|set.in POW (BOOL x s0)| f (|functions.partial BOOL s0| e1 e2))
         (and (|set.in POW (BOOL x s0)| f (|relations BOOL s0| e1 e2))
              (|set.in POW (BOOL x s0)| f (|functions BOOL s0| e1 e2))))))
  :named |ax:def.pfun (BOOL x s0)|)
)
(declare-fun |relations.total BOOL s0| (|POW BOOL| |POW s0|) |POW POW (BOOL x s0)|)
(assert (!
  (forall ((X |POW BOOL|) (Y |POW s0|))
    (forall ((f |POW (BOOL x s0)|))
      (= (|set.in POW (BOOL x s0)| f (|relations.total BOOL s0| X Y))
         (= (|rel.domain BOOL s0| f) X))))
 :named |ax:set.in.relations.total (BOOL x s0)|))
(define-sort |? (POW (Z x s0) x Z)| () (-> |(POW (Z x s0) x Z)| Bool))
(declare-const |set.intent (POW (Z x s0) x Z)| (-> |? (POW (Z x s0) x Z)| |POW (POW (Z x s0) x Z)|))
(assert (!
  (forall ((p |? (POW (Z x s0) x Z)|))
    (forall ((x |(POW (Z x s0) x Z)|))
      (= (|set.in (POW (Z x s0) x Z)| x (|set.intent (POW (Z x s0) x Z)| p))
         (@ p x))))
  :named |ax:set.in.intent (POW (Z x s0) x Z)|))
(declare-fun |functions.partial POW (Z x s0) Z| (|POW POW (Z x s0)| |POW Z|) |POW POW (POW (Z x s0) x Z)|)
(assert (!
  (forall ((e1 |POW POW (Z x s0)|) (e2 |POW Z|))
    (forall ((f |POW (POW (Z x s0) x Z)|))
      (= (|set.in POW (POW (Z x s0) x Z)| f (|functions.partial POW (Z x s0) Z| e1 e2))
         (and (|set.in POW (POW (Z x s0) x Z)| f (|relations POW (Z x s0) Z| e1 e2))
              (|set.in POW (POW (Z x s0) x Z)| f (|functions POW (Z x s0) Z| e1 e2))))))
  :named |ax:def.pfun (POW (Z x s0) x Z)|)
)
(declare-fun |relations.total POW (Z x s0) Z| (|POW POW (Z x s0)| |POW Z|) |POW POW (POW (Z x s0) x Z)|)
(assert (!
  (forall ((X |POW POW (Z x s0)|) (Y |POW Z|))
    (forall ((f |POW (POW (Z x s0) x Z)|))
      (= (|set.in POW (POW (Z x s0) x Z)| f (|relations.total POW (Z x s0) Z| X Y))
         (= (|rel.domain POW (Z x s0) Z| f) X))))
 :named |ax:set.in.relations.total (POW (Z x s0) x Z)|))
(declare-fun |functions.partial Z POW (Z x s0)| (|POW Z| |POW POW (Z x s0)|) |POW POW (Z x POW (Z x s0))|)
(assert (!
  (forall ((e1 |POW Z|) (e2 |POW POW (Z x s0)|))
    (forall ((f |POW (Z x POW (Z x s0))|))
      (= (|set.in POW (Z x POW (Z x s0))| f (|functions.partial Z POW (Z x s0)| e1 e2))
         (and (|set.in POW (Z x POW (Z x s0))| f (|relations Z POW (Z x s0)| e1 e2))
              (|set.in POW (Z x POW (Z x s0))| f (|functions Z POW (Z x s0)| e1 e2))))))
  :named |ax:def.pfun (Z x POW (Z x s0))|)
)
(declare-fun |relations.total Z POW (Z x s0)| (|POW Z| |POW POW (Z x s0)|) |POW POW (Z x POW (Z x s0))|)
(assert (!
  (forall ((X |POW Z|) (Y |POW POW (Z x s0)|))
    (forall ((f |POW (Z x POW (Z x s0))|))
      (= (|set.in POW (Z x POW (Z x s0))| f (|relations.total Z POW (Z x s0)| X Y))
         (= (|rel.domain Z POW (Z x s0)| f) X))))
 :named |ax:set.in.relations.total (Z x POW (Z x s0))|))
(declare-fun |relations Z s0| (|POW Z| |POW s0|) |POW POW (Z x s0)|)
(assert (!
  (forall ((X |POW Z|) (Y |POW s0|))
    (= (|relations Z s0| X Y)
       (|sub-sets (Z x s0)| (|set.product Z s0| X Y))))
    :named |def.relations (Z x s0)|))
(declare-fun |functions Z s0| (|POW Z| |POW s0|) |POW POW (Z x s0)|)
(assert (!
  (forall ((X |POW Z|) (Y |POW s0|))
    (forall ((f |POW (Z x s0)|))
      (= (|set.in POW (Z x s0)| f (|functions Z s0| X Y))
         (forall ((p |(Z x s0)|) (q |(Z x s0)|))
           (=> (and (|set.in (Z x s0)| p f) (|set.in (Z x s0)| q f) (= (fst p) (fst q)))
               (= (snd p) (snd q)))))))
:named |ax:set.in.functions (Z x s0)|))
(declare-fun |functions.partial s0 BOOL| (|POW s0| |POW BOOL|) |POW POW (s0 x BOOL)|)
(assert (!
  (forall ((e1 |POW s0|) (e2 |POW BOOL|))
    (forall ((f |POW (s0 x BOOL)|))
      (= (|set.in POW (s0 x BOOL)| f (|functions.partial s0 BOOL| e1 e2))
         (and (|set.in POW (s0 x BOOL)| f (|relations s0 BOOL| e1 e2))
              (|set.in POW (s0 x BOOL)| f (|functions s0 BOOL| e1 e2))))))
  :named |ax:def.pfun (s0 x BOOL)|)
)
(declare-fun |relations.total s0 BOOL| (|POW s0| |POW BOOL|) |POW POW (s0 x BOOL)|)
(assert (!
  (forall ((X |POW s0|) (Y |POW BOOL|))
    (forall ((f |POW (s0 x BOOL)|))
      (= (|set.in POW (s0 x BOOL)| f (|relations.total s0 BOOL| X Y))
         (= (|rel.domain s0 BOOL| f) X))))
 :named |ax:set.in.relations.total (s0 x BOOL)|))
(define-const MININT |Z| (- 2147483648))
(define-const MAXINT |Z| 2147483647)
(declare-const s8 |Z|)
(declare-const s0 |POW s0|)
(declare-const s3 |POW (Z x POW (Z x s0))|)
(declare-const s4 |POW (POW (Z x s0) x Z)|)
(declare-const s5 |POW (BOOL x s0)|)
(declare-const s6 |POW (s0 x BOOL)|)
(declare-fun |functions.total BOOL s0| (|POW BOOL| |POW s0|) |POW POW (BOOL x s0)|)
(assert (!
  (forall ((e1 |POW BOOL|) (e2 |POW s0|))
    (forall ((f |POW (BOOL x s0)|))
      (= (|set.in POW (BOOL x s0)| f (|functions.total BOOL s0| e1 e2))
         (and (|set.in POW (BOOL x s0)| f (|functions.partial BOOL s0| e1 e2))
              (|set.in POW (BOOL x s0)| f (|relations.total BOOL s0| e1 e2))))))
  :named |ax:def.tfun (BOOL x s0)|))
(declare-const BOOL |POW BOOL|)
(assert (!
  (forall ((e |BOOL|)) (|set.in BOOL| e BOOL))
  :named |ax.set.in.BOOL|))
(declare-fun |~ Z POW (Z x s0)| (|POW (Z x POW (Z x s0))|) |POW (POW (Z x s0) x Z)|)
(assert (!
  (forall ((R |POW (Z x POW (Z x s0))|))
    (= (|~ Z POW (Z x s0)| R)
       (|set.intent (POW (Z x s0) x Z)|
         (lambda ((x |(POW (Z x s0) x Z)|))
           (|set.in (Z x POW (Z x s0))| (maplet (snd x) (fst x)) R)))))
  :named |def.reverse (Z x POW (Z x s0))|))
(assert (!
  (forall ((s |POW (POW (Z x s0) x Z)|) (t |POW (POW (Z x s0) x Z)|))
    (=
      (= s t)
      (forall ((e |(POW (Z x s0) x Z)|)) (= (|set.in (POW (Z x s0) x Z)| e s) (|set.in (POW (Z x s0) x Z)| e t)))))
  :named |ax.set.eq (POW (Z x s0) x Z)|))
(declare-fun |functions.total POW (Z x s0) Z| (|POW POW (Z x s0)| |POW Z|) |POW POW (POW (Z x s0) x Z)|)
(assert (!
  (forall ((e1 |POW POW (Z x s0)|) (e2 |POW Z|))
    (forall ((f |POW (POW (Z x s0) x Z)|))
      (= (|set.in POW (POW (Z x s0) x Z)| f (|functions.total POW (Z x s0) Z| e1 e2))
         (and (|set.in POW (POW (Z x s0) x Z)| f (|functions.partial POW (Z x s0) Z| e1 e2))
              (|set.in POW (POW (Z x s0) x Z)| f (|relations.total POW (Z x s0) Z| e1 e2))))))
  :named |ax:def.tfun (POW (Z x s0) x Z)|))
(declare-fun |functions.total Z POW (Z x s0)| (|POW Z| |POW POW (Z x s0)|) |POW POW (Z x POW (Z x s0))|)
(assert (!
  (forall ((e1 |POW Z|) (e2 |POW POW (Z x s0)|))
    (forall ((f |POW (Z x POW (Z x s0))|))
      (= (|set.in POW (Z x POW (Z x s0))| f (|functions.total Z POW (Z x s0)| e1 e2))
         (and (|set.in POW (Z x POW (Z x s0))| f (|functions.partial Z POW (Z x s0)| e1 e2))
              (|set.in POW (Z x POW (Z x s0))| f (|relations.total Z POW (Z x s0)| e1 e2))))))
  :named |ax:def.tfun (Z x POW (Z x s0))|))
(declare-fun |functions.partial Z s0| (|POW Z| |POW s0|) |POW POW (Z x s0)|)
(assert (!
  (forall ((e1 |POW Z|) (e2 |POW s0|))
    (forall ((f |POW (Z x s0)|))
      (= (|set.in POW (Z x s0)| f (|functions.partial Z s0| e1 e2))
         (and (|set.in POW (Z x s0)| f (|relations Z s0| e1 e2))
              (|set.in POW (Z x s0)| f (|functions Z s0| e1 e2))))))
  :named |ax:def.pfun (Z x s0)|)
)
(declare-const INTEGER |POW Z|)
(assert (!
  (forall ((e |Z|)) (|set.in Z| e INTEGER))
  :named |ax.set.in.INTEGER|))
(declare-fun |functions.total s0 BOOL| (|POW s0| |POW BOOL|) |POW POW (s0 x BOOL)|)
(assert (!
  (forall ((e1 |POW s0|) (e2 |POW BOOL|))
    (forall ((f |POW (s0 x BOOL)|))
      (= (|set.in POW (s0 x BOOL)| f (|functions.total s0 BOOL| e1 e2))
         (and (|set.in POW (s0 x BOOL)| f (|functions.partial s0 BOOL| e1 e2))
              (|set.in POW (s0 x BOOL)| f (|relations.total s0 BOOL| e1 e2))))))
  :named |ax:def.tfun (s0 x BOOL)|))
(declare-const INT |POW Z|)
(assert (!
  (forall ((e |Z|)) (= (|set.in Z| e INT) (and (<= MININT e) (<= e MAXINT))))
  :named |ax.set.in.INT|))
(assert (!
  (|set.in POW (Z x POW (Z x s0))| s3 (|functions.total Z POW (Z x s0)| INTEGER (|functions.partial Z s0| INTEGER s0)))
  :named |Local_Hyp:0|))
(assert (!
  (|set.in POW (POW (Z x s0) x Z)| s4 (|functions.total POW (Z x s0) Z| (|functions.partial Z s0| INTEGER s0) INTEGER))
  :named |Local_Hyp:1|))
(assert (!
  (= s4 (|~ Z POW (Z x s0)| s3))
  :named |Local_Hyp:2|))
(assert (!
  (|set.in POW (BOOL x s0)| s5 (|functions.total BOOL s0| BOOL s0))
  :named |Local_Hyp:3|))
(assert (!
  (|set.in POW (s0 x BOOL)| s6 (|functions.total s0 BOOL| s0 BOOL))
  :named |Local_Hyp:4|))
(assert (!
  (|set.in Z| s8 INT)
  :named |Local_Hyp:5|))
(assert (!
  (not
    (<= 0 (- s8 1)))
  :named |Goal|))
(check-sat)
(exit)
